
Log started (V11.0.0) Sat Apr 19 08:07:41 2008

Tried aggregator 1 time.
Reduced MIP has 220 rows, 4001 columns, and 8020 nonzeros.
Presolve time =    0.03 sec.
Clique table members: 200.
MIP emphasis: balance optimality and feasibility.
MIP search method: dynamic search.
Parallel mode: none, using 1 thread.
Root relaxation solution time =    0.12 sec.

        Nodes                                         Cuts/
   Node  Left     Objective  IInf  Best Integer     Best Node    ItCnt     Gap

*     0+    0                        29941.0000     1044.6052      409   96.51%
*     0+    0                         1124.0000     1044.6052      409    7.06%
      0     0     1045.0000    40     1124.0000      Fract: 6      443    7.03%
*     0+    0                         1084.0000     1045.0000      443    3.60%
      0     0     1045.0985    43     1084.0000     Covers: 1      499    3.59%
*     0+    0                         1071.0000     1045.0985      499    2.42%
      0     0     1047.4400    54     1071.0000      Cuts: 11      567    2.20%
      0     0     1047.6920    64     1071.0000      Cuts: 10      598    2.18%
      0     0     1047.7102    70     1071.0000       Cuts: 5      610    2.17%
      0     0     1047.8261    72     1071.0000       Cuts: 4      639    2.16%
      0     0     1048.0244    70     1071.0000       Cuts: 4      679    2.15%
      0     0     1048.0454    71     1071.0000       Cuts: 3      688    2.14%
*     0+    0                         1060.0000     1048.0454      688    1.13%
*     0+    0                         1057.0000     1048.0454      688    0.85%
      0     2     1048.0454    71     1057.0000     1048.0454      688    0.85%
    100    93     1050.0000    35     1057.0000     1048.1240     2999    0.84%
    200   161     1055.0000    36     1057.0000     1048.1240     6180    0.84%
    300   240     1049.0000    48     1057.0000     1048.1647     8292    0.84%
    400   328     1050.0000    43     1057.0000     1048.1647    11013    0.84%
    500   387     1054.0000    33     1057.0000     1048.1647    13983    0.84%
    600   406     1054.0000    50     1057.0000     1049.0000    17653    0.76%
    700   419     1051.0000    47     1057.0000     1049.0000    20924    0.76%
    800   431     1052.0000    49     1057.0000     1049.0000    24031    0.76%
    900   440     1055.0000    54     1057.0000     1049.0000    26858    0.76%
   1000   448     1056.0000    64     1057.0000     1049.0000    30429    0.76%
Elapsed time =  24.55 sec. (tree size =  2.08 MB, solutions = 6)
   1100   511     1054.0000    55     1057.0000     1049.0000    34037    0.76%
   1200   600     1056.0000    61     1057.0000     1049.0000    37971    0.76%
   1300   669     1054.0000    31     1057.0000     1049.0000    45510    0.76%
   1400   766     1054.0000    53     1057.0000     1049.0000    51153    0.76%
   1500   846     1054.0000    49     1057.0000     1049.0000    57624    0.76%
   1600   936     1056.0000    58     1057.0000     1049.0000    59874    0.76%
   1700  1024     1055.0000    61     1057.0000     1049.0000    63140    0.76%
   1800  1108     1054.0000    42     1057.0000     1049.0080    67854    0.76%
   1900  1198     1054.0000    63     1057.0000     1049.0080    73558    0.76%
   2000  1280     1056.0000    43     1057.0000     1049.0092    78048    0.76%
Elapsed time =  44.50 sec. (tree size =  6.99 MB, solutions = 6)
   2100  1371     1054.0000    52     1057.0000     1049.1135    81515    0.75%
   2200  1468     1054.0000    54     1057.0000     1049.1135    85955    0.75%
*  2281+ 1022                         1055.0000     1050.0000    90228    0.47%
   2300  1041     1054.0000    49     1055.0000     1050.0000    90422    0.47%
   2400  1129     1054.0000    40     1055.0000     1050.0000    93292    0.47%
   2500  1186     1054.0000    41     1055.0000     1050.0000    99114    0.47%
   2600  1262     1054.0000    34     1055.0000     1051.0000   101771    0.38%
   2700  1353     1054.0000    52     1055.0000     1051.0000   104133    0.38%
   2800  1443     1054.0000    62     1055.0000     1051.0000   107715    0.38%
   2900  1528     1054.0000    59     1055.0000     1051.0000   110088    0.38%
   3000  1615     1054.0000    56     1055.0000     1051.0000   113282    0.38%
Elapsed time =  60.31 sec. (tree size =  9.83 MB, solutions = 7)
   3100  1706     1054.0000    36     1055.0000     1051.0000   115707    0.38%
   3200  1790        cutoff           1055.0000     1051.0000   119607    0.38%
   3300  1874     1054.0000    37     1055.0000     1051.0000   123110    0.38%
   3400  1958     1054.0000    52     1055.0000     1051.0000   130065    0.38%
   3500  2047     1054.0000    45     1055.0000     1051.0000   133026    0.38%
*  3511+   85                         1054.0000     1051.0000   133262    0.28%

Cover cuts applied:  278
Mixed integer rounding cuts applied:  8
Zero-half cuts applied:  1
Gomory fractional cuts applied:  5

Solution pool: 8 solutions saved.

MIP - Integer optimal solution:  Objective = 1.0540000000e+003
Solution time =   72.53 sec.  Iterations = 144449  Nodes = 3596


Incumbent solution
Variable Name           Solution Value
Cmax                       1054.000000
X_1_13                        1.000000
X_2_2                         1.000000
X_3_6                         1.000000
X_4_2                         1.000000
X_5_11                        1.000000
X_6_3                         1.000000
X_7_19                        1.000000
X_8_14                        1.000000
X_9_8                         1.000000
X_10_14                       1.000000
X_11_8                        1.000000
X_12_18                       1.000000
X_13_5                        1.000000
X_14_4                        1.000000
X_15_16                       1.000000
X_16_1                        1.000000
X_17_2                        1.000000
X_18_3                        1.000000
X_19_4                        1.000000
X_20_1                        1.000000
X_21_19                       1.000000
X_22_13                       1.000000
X_23_17                       1.000000
X_24_15                       1.000000
X_25_9                        1.000000
X_26_7                        1.000000
X_27_9                        1.000000
X_28_10                       1.000000
X_29_20                       1.000000
X_30_8                        1.000000
X_31_17                       1.000000
X_32_1                        1.000000
X_33_20                       1.000000
X_34_18                       1.000000
X_35_6                        1.000000
X_36_5                        1.000000
X_37_3                        1.000000
X_37_17                       0.000000
X_38_10                       1.000000
X_39_16                       1.000000
X_40_15                       1.000000
X_41_11                       1.000000
X_42_2                        1.000000
X_43_10                       1.000000
X_44_18                       1.000000
X_45_2                        1.000000
X_46_16                       1.000000
X_47_3                        1.000000
X_48_4                        1.000000
X_49_19                       1.000000
X_50_11                       1.000000
X_51_1                        1.000000
X_52_17                       1.000000
X_53_14                       1.000000
X_54_5                        1.000000
X_55_17                       1.000000
X_56_7                        1.000000
X_57_14                       1.000000
X_58_2                        1.000000
X_59_20                       1.000000
X_60_14                       1.000000
X_61_4                        1.000000
X_62_10                       1.000000
X_63_7                        1.000000
X_64_12                       1.000000
X_65_11                       1.000000
X_66_18                       1.000000
X_67_15                       1.000000
X_68_13                       1.000000
X_69_3                        1.000000
X_70_11                       1.000000
X_71_4                        1.000000
X_72_4                        1.000000
X_73_3                        0.000000
X_73_14                      -0.000000
X_73_15                       1.000000
X_74_19                       1.000000
X_75_13                       1.000000
X_76_8                        1.000000
X_77_7                        1.000000
X_78_4                        1.000000
X_79_11                       1.000000
X_80_9                        1.000000
X_81_10                       1.000000
X_82_12                       1.000000
X_83_15                       1.000000
X_84_15                       1.000000
X_85_7                        1.000000
X_86_10                       1.000000
X_87_7                        1.000000
X_88_2                        1.000000
X_89_5                        1.000000
X_90_14                       1.000000
X_91_4                        1.000000
X_92_13                       1.000000
X_93_2                        1.000000
X_94_7                        1.000000
X_95_16                       1.000000
X_96_20                       1.000000
X_97_2                        1.000000
X_98_17                       1.000000
X_99_20                       1.000000
X_100_19                      1.000000
X_101_13                      1.000000
X_102_3                       1.000000
X_103_5                       1.000000
X_104_6                       1.000000
X_105_2                       1.000000
X_106_10                      1.000000
X_107_3                       1.000000
X_108_5                       1.000000
X_109_6                       1.000000
X_110_12                      1.000000
X_111_14                      1.000000
X_112_14                      1.000000
X_113_18                      1.000000
X_114_10                      1.000000
X_115_15                      1.000000
X_116_13                      1.000000
X_117_17                      1.000000
X_118_14                      0.000000
X_118_17                      1.000000
X_119_12                      1.000000
X_120_20                      1.000000
X_121_11                      1.000000
X_122_9                       1.000000
X_123_12                      1.000000
X_124_1                       1.000000
X_125_20                      1.000000
X_126_12                      1.000000
X_127_6                       1.000000
X_128_5                       1.000000
X_129_8                       1.000000
X_130_7                       1.000000
X_131_16                      1.000000
X_132_14                      1.000000
X_133_20                      1.000000
X_134_1                       1.000000
X_135_19                      1.000000
X_136_19                      1.000000
X_137_9                       1.000000
X_138_9                       1.000000
X_139_7                       1.000000
X_140_14                      1.000000
X_141_16                      1.000000
X_142_20                      1.000000
X_143_13                      1.000000
X_144_6                       1.000000
X_145_17                      1.000000
X_146_1                       1.000000
X_147_13                      1.000000
X_148_6                       1.000000
X_149_12                      1.000000
X_150_11                      1.000000
X_151_12                      1.000000
X_152_10                      1.000000
X_153_7                       1.000000
X_154_18                      1.000000
X_155_6                       1.000000
X_156_6                       1.000000
X_157_17                      1.000000
X_158_13                      1.000000
X_159_1                       1.000000
X_160_1                       1.000000
X_161_4                       1.000000
X_162_6                       1.000000
X_163_18                      1.000000
X_164_16                      1.000000
X_165_8                       1.000000
X_166_18                      1.000000
X_167_9                       1.000000
X_168_9                       1.000000
X_169_9                       1.000000
X_170_16                      1.000000
X_171_12                      1.000000
X_172_20                      1.000000
X_173_11                      1.000000
X_174_5                       1.000000
X_175_4                       1.000000
X_176_18                      1.000000
X_177_11                      1.000000
X_178_8                       1.000000
X_179_16                      1.000000
X_180_5                       1.000000
X_181_3                       1.000000
X_182_8                       1.000000
X_183_18                      1.000000
X_184_1                       1.000000
X_185_15                      1.000000
X_186_3                       1.000000
X_187_8                       1.000000
X_188_19                      1.000000
X_189_17                      1.000000
X_190_15                      1.000000
X_191_10                      1.000000
X_192_12                      1.000000
X_193_5                       1.000000
X_194_15                      1.000000
X_195_8                       1.000000
X_196_19                      1.000000
X_197_3                       1.000000
X_198_16                      1.000000
X_199_19                      1.000000
X_200_9                       1.000000
All other variables in the range 1-4001 are 0.
